% seed = 6077066

mint = 43;
% maxt = 109;

nActs = 22;
dur = [0,3,7,8,2,3,2,7,2,5,7,1,6,9,6,2,8,6,8,8,9,0];

nSkills = 4;
sreq = [| 0,0,0,0,
	| 2,3,1,3,
	| 1,0,1,1,
	| 1,0,0,2,
	| 3,1,1,2,
	| 2,3,3,1,
	| 1,2,3,2,
	| 1,0,1,2,
	| 0,1,1,3,
	| 0,3,0,3,
	| 2,3,0,0,
	| 3,0,3,2,
	| 2,3,1,0,
	| 3,3,3,2,
	| 1,0,2,2,
	| 1,2,0,1,
	| 1,3,1,0,
	| 1,2,0,1,
	| 0,0,3,2,
	| 3,2,1,1,
	| 0,3,3,0,
	| 0,0,0,0, |];

nResources = 20;
mastery = [| false,true,true,true,
	| true,false,false,true,
	| true,true,false,true,
	| true,false,false,false,
	| false,false,true,false,
	| false,false,false,true,
	| true,false,false,false,
	| false,true,false,false,
	| true,false,true,false,
	| true,false,true,true,
	| false,true,false,true,
	| true,true,false,false,
	| false,false,true,true,
	| true,true,true,false,
	| false,false,true,false,
	| true,true,false,true,
	| true,false,false,false,
	| false,false,true,true,
	| true,false,true,false,
	| false,false,true,false, |];

nPrecs = 43;
pred = [1,1,1,2,2,2,3,3,3,4,4,4,5,5,5,6,7,7,7,8,8,9,9,9,10,10,11,11,11,12,12,13,13,14,15,16,16,17,17,18,19,20,21];
succ = [2,3,4,9,5,7,12,6,14,20,13,8,10,11,13,16,17,12,13,10,14,18,19,12,15,16,18,14,15,20,21,19,16,17,17,18,21,19,21,20,22,22,22];

nUnrels = 85;
unpred = [2,2,2,2,3,3,3,3,3,3,3,3,3,4,4,4,4,4,4,5,5,5,5,5,6,6,6,6,6,6,6,6,6,6,6,7,7,7,7,7,7,8,8,8,8,9,9,9,9,9,9,9,10,10,10,10,11,11,11,12,12,12,12,12,12,12,13,13,13,14,14,14,14,15,15,15,16,16,17,17,18,18,19,19,20];
unsucc = [3,4,6,8,4,5,7,8,9,10,11,13,15,5,6,7,9,11,12,6,7,8,9,12,7,8,9,10,11,12,13,14,15,17,19,8,9,10,11,14,15,9,11,12,13,10,11,13,14,15,16,17,11,12,13,14,12,13,16,13,14,15,16,17,18,19,14,15,17,15,16,18,20,16,18,20,17,19,18,20,19,21,20,21,21];

USEFUL_RES = [{},
	{1,2,3,4,5,6,7,8,9,10,11,12,13,14,15,16,17,18,19,20},
	{1,2,3,4,5,6,7,9,10,11,12,13,14,15,16,17,18,19,20},
	{1,2,3,4,6,7,9,10,11,12,13,14,16,17,18,19},
	{1,2,3,4,5,6,7,8,9,10,11,12,13,14,15,16,17,18,19,20},
	{1,2,3,4,5,6,7,8,9,10,11,12,13,14,15,16,17,18,19,20},
	{1,2,3,4,5,6,7,8,9,10,11,12,13,14,15,16,17,18,19,20},
	{1,2,3,4,5,6,7,9,10,11,12,13,14,15,16,17,18,19,20},
	{1,2,3,5,6,8,9,10,11,12,13,14,15,16,18,19,20},
	{1,2,3,6,8,10,11,12,13,14,16,18},
	{1,2,3,4,7,8,9,10,11,12,14,16,17,19},
	{1,2,3,4,5,6,7,9,10,11,12,13,14,15,16,17,18,19,20},
	{1,2,3,4,5,7,8,9,10,11,12,13,14,15,16,17,18,19,20},
	{1,2,3,4,5,6,7,8,9,10,11,12,13,14,15,16,17,18,19,20},
	{1,2,3,4,5,6,7,9,10,11,12,13,14,15,16,17,18,19,20},
	{1,2,3,4,6,7,8,9,10,11,12,13,14,16,17,18,19},
	{1,2,3,4,5,7,8,9,10,11,12,13,14,15,16,17,18,19,20},
	{1,2,3,4,6,7,8,9,10,11,12,13,14,16,17,18,19},
	{1,2,3,5,6,9,10,11,13,14,15,16,18,19,20},
	{1,2,3,4,5,6,7,8,9,10,11,12,13,14,15,16,17,18,19,20},
	{1,3,5,8,9,10,11,12,13,14,15,16,18,19,20},
	{}];

POTENTIAL_ACT = [{2,3,4,5,6,7,8,9,10,11,12,13,14,15,16,17,18,19,20,21},
	{2,3,4,5,6,7,8,9,10,11,12,13,14,15,16,17,18,19,20},
	{2,3,4,5,6,7,8,9,10,11,12,13,14,15,16,17,18,19,20,21},
	{2,3,4,5,6,7,8,11,12,13,14,15,16,17,18,20},
	{2,3,5,6,7,8,9,12,13,14,15,17,19,20,21},
	{2,3,4,5,6,7,8,9,10,12,14,15,16,18,19,20},
	{2,3,4,5,6,7,8,11,12,13,14,15,16,17,18,20},
	{2,5,6,7,9,10,11,13,14,16,17,18,20,21},
	{2,3,4,5,6,7,8,9,11,12,13,14,15,16,17,18,19,20,21},
	{2,3,4,5,6,7,8,9,10,11,12,13,14,15,16,17,18,19,20,21},
	{2,3,4,5,6,7,8,9,10,11,12,13,14,15,16,17,18,19,20,21},
	{2,3,4,5,6,7,8,9,10,11,12,13,14,15,16,17,18,20,21},
	{2,3,4,5,6,7,8,9,10,12,13,14,15,16,17,18,19,20,21},
	{2,3,4,5,6,7,8,9,10,11,12,13,14,15,16,17,18,19,20,21},
	{2,3,5,6,7,8,9,12,13,14,15,17,19,20,21},
	{2,3,4,5,6,7,8,9,10,11,12,13,14,15,16,17,18,19,20,21},
	{2,3,4,5,6,7,8,11,12,13,14,15,16,17,18,20},
	{2,3,4,5,6,7,8,9,10,12,13,14,15,16,17,18,19,20,21},
	{2,3,4,5,6,7,8,9,11,12,13,14,15,16,17,18,19,20,21},
	{2,3,5,6,7,8,9,12,13,14,15,17,19,20,21}];
